p tw 221 253
1 2
2 113
3 14
3 102
4 5
5 6
6 7
7 8
8 148
9 10
10 11
11 12
12 13
13 15
13 128
14 25
15 16
16 17
17 18
18 148
19 20
20 21
21 22
22 148
23 24
24 26
24 120
25 36
25 80
26 27
27 28
28 29
28 120
29 30
30 31
30 120
31 32
32 33
33 148
34 35
35 37
36 47
37 38
38 39
39 40
39 120
40 41
41 42
42 148
43 44
44 45
45 46
46 48
47 58
48 49
49 50
50 51
51 52
52 53
53 54
53 59
54 55
55 56
56 57
57 59
58 69
59 60
60 61
61 62
62 63
63 64
63 128
64 65
65 66
65 100
66 67
67 68
68 70
68 100
69 80
70 71
71 72
72 73
73 74
73 78
74 75
75 76
76 77
77 115
78 79
79 81
80 91
81 82
82 83
83 84
84 85
85 86
86 87
87 88
88 89
88 100
89 90
90 92
91 135
92 93
93 94
94 95
95 96
96 97
97 98
98 99
98 83
99 128
100 101
101 103
102 114
103 104
104 105
105 106
106 107
107 108
108 109
108 128
109 110
110 111
111 112
112 115
112 61
113 145
114 125
115 116
116 117
117 118
118 119
119 148
120 121
121 122
122 123
123 124
124 126
125 136
126 127
127 148
128 129
129 130
130 131
131 132
132 133
133 134
134 135
135 137
136 138
138 139
138 142
139 140
140 141
141 142
142 143
143 144
144 146
145 156
146 147
147 148
148 149
149 150
150 151
151 152
151 128
152 153
153 154
154 155
155 157
155 163
156 167
157 158
158 159
159 160
160 161
160 128
161 162
162 135
163 164
164 165
165 166
165 168
166 168
167 178
168 169
169 170
170 171
170 128
171 172
172 173
172 34
173 174
174 175
174 23
175 176
176 177
176 19
177 179
178 189
179 180
179 43
180 181
181 182
181 120
182 183
183 184
184 185
185 186
185 201
186 187
187 188
187 128
188 190
189 200
190 191
191 192
192 193
193 194
194 195
195 196
196 197
197 198
198 199
199 148
200 211
201 202
202 203
203 204
203 215
204 205
205 206
206 207
206 128
207 208
208 209
209 210
210 212
211 3
212 213
213 214
214 148
215 216
216 217
217 218
217 9
218 219
219 220
219 9
220 221
221 4
